p cnf 361 1
361 0
w 1 0.961281
w 2 1 0.144025
w 2 -1 0.0068063
w 3 2 0.812737
w 3 -2 0.973562
w 4 3 1
w 4 -3 0
w 5 4 0.191359
w 5 -4 0.361441
w 6 5 0
w 6 -5 1
w 7 6 0
w 7 -6 1
w 8 7 1
w 8 -7 0
w 9 8 1
w 9 -8 0
w 10 9 1
w 10 -9 0
w 11 10 1
w 11 -10 0
w 12 11 0.843118
w 12 -11 0.34684
w 13 12 0.981253
w 13 -12 0.380355
w 14 13 1
w 14 -13 0
w 15 14 0.40546
w 15 -14 0.94934
w 16 15 0.218198
w 16 -15 0.922902
w 17 16 0.29806
w 17 -16 0.747835
w 18 17 0.659501
w 18 -17 0.207396
w 19 18 0.926775
w 19 -18 0.831729
w 20 1 0
w 20 -1 1
w 21 20 2 0.0326632
w 21 20 -2 0.53806
w 21 -20 2 0.233359
w 21 -20 -2 0.140193
w 22 21 3 0.00351594
w 22 21 -3 0.983311
w 22 -21 3 0.258636
w 22 -21 -3 0.560905
w 23 22 4 0.63899
w 23 22 -4 0.822341
w 23 -22 4 0.907098
w 23 -22 -4 0.540955
w 24 23 5 0
w 24 23 -5 1
w 24 -23 5 1
w 24 -23 -5 1
w 25 24 6 1
w 25 24 -6 0
w 25 -24 6 1
w 25 -24 -6 1
w 26 25 7 0.330335
w 26 25 -7 0.566299
w 26 -25 7 0.6216
w 26 -25 -7 0.710709
w 27 26 8 0.654263
w 27 26 -8 0.248769
w 27 -26 8 0.77916
w 27 -26 -8 0.794456
w 28 27 9 0
w 28 27 -9 0
w 28 -27 9 1
w 28 -27 -9 1
w 29 28 10 0.0581906
w 29 28 -10 0.165922
w 29 -28 10 0.649429
w 29 -28 -10 0.599146
w 30 29 11 0
w 30 29 -11 0
w 30 -29 11 1
w 30 -29 -11 1
w 31 30 12 0.58378
w 31 30 -12 0.81238
w 31 -30 12 0.994934
w 31 -30 -12 0.98734
w 32 31 13 0.598005
w 32 31 -13 0.317675
w 32 -31 13 0.11325
w 32 -31 -13 0.219605
w 33 32 14 0
w 33 32 -14 1
w 33 -32 14 1
w 33 -32 -14 0
w 34 33 15 0.437718
w 34 33 -15 0.220888
w 34 -33 15 0.446092
w 34 -33 -15 0.856918
w 35 34 16 0.188423
w 35 34 -16 0.915108
w 35 -34 16 0.730391
w 35 -34 -16 0.837852
w 36 35 17 0.124114
w 36 35 -17 0.343719
w 36 -35 17 0.390627
w 36 -35 -17 0.963835
w 37 36 18 0.335142
w 37 36 -18 0.547615
w 37 -36 18 0.441306
w 37 -36 -18 0.330076
w 38 37 19 0.988256
w 38 37 -19 0.928081
w 38 -37 19 0.85263
w 38 -37 -19 0.101506
w 39 20 0
w 39 -20 1
w 40 39 21 0.0215542
w 40 39 -21 0.158167
w 40 -39 21 0.19877
w 40 -39 -21 0.689879
w 41 40 22 0.419657
w 41 40 -22 0.135971
w 41 -40 22 0.452802
w 41 -40 -22 0.984127
w 42 41 23 0
w 42 41 -23 1
w 42 -41 23 1
w 42 -41 -23 1
w 43 42 24 0.505965
w 43 42 -24 0.272792
w 43 -42 24 0.802467
w 43 -42 -24 0.13489
w 44 43 25 0.350081
w 44 43 -25 0.576196
w 44 -43 25 0.93801
w 44 -43 -25 0.885036
w 45 44 26 0.866091
w 45 44 -26 0.737667
w 45 -44 26 0.665959
w 45 -44 -26 0.0137767
w 46 45 27 0.426517
w 46 45 -27 0.0353309
w 46 -45 27 0.776848
w 46 -45 -27 0.625286
w 47 46 28 0.372733
w 47 46 -28 0.0449436
w 47 -46 28 0.86118
w 47 -46 -28 0.825536
w 48 47 29 0
w 48 47 -29 0
w 48 -47 29 0
w 48 -47 -29 1
w 49 48 30 0
w 49 48 -30 0
w 49 -48 30 1
w 49 -48 -30 0
w 50 49 31 0.956337
w 50 49 -31 0.734767
w 50 -49 31 0.564872
w 50 -49 -31 0.894347
w 51 50 32 0.129324
w 51 50 -32 0.760438
w 51 -50 32 0.35747
w 51 -50 -32 0.795283
w 52 51 33 0.976152
w 52 51 -33 0.2218
w 52 -51 33 0.809546
w 52 -51 -33 0.753
w 53 52 34 0.534755
w 53 52 -34 0.125733
w 53 -52 34 0.89203
w 53 -52 -34 0.395936
w 54 53 35 0.9211
w 54 53 -35 0.58151
w 54 -53 35 0.144715
w 54 -53 -35 0.664688
w 55 54 36 0.220327
w 55 54 -36 0.246907
w 55 -54 36 0.783116
w 55 -54 -36 0.56873
w 56 55 37 0.771793
w 56 55 -37 0.525067
w 56 -55 37 0.36636
w 56 -55 -37 0.336665
w 57 56 38 0
w 57 56 -38 0
w 57 -56 38 0
w 57 -56 -38 1
w 58 39 1
w 58 -39 0
w 59 58 40 0
w 59 58 -40 1
w 59 -58 40 1
w 59 -58 -40 1
w 60 59 41 1
w 60 59 -41 0
w 60 -59 41 1
w 60 -59 -41 1
w 61 60 42 1
w 61 60 -42 1
w 61 -60 42 0
w 61 -60 -42 1
w 62 61 43 0.0548826
w 62 61 -43 0.988261
w 62 -61 43 0.0835592
w 62 -61 -43 0.686475
w 63 62 44 0.608626
w 63 62 -44 0.0528346
w 63 -62 44 0.0967183
w 63 -62 -44 0.0280404
w 64 63 45 0
w 64 63 -45 0
w 64 -63 45 0
w 64 -63 -45 1
w 65 64 46 0.307053
w 65 64 -46 0.925572
w 65 -64 46 0.775202
w 65 -64 -46 0.637212
w 66 65 47 0
w 66 65 -47 1
w 66 -65 47 0
w 66 -65 -47 0
w 67 66 48 1
w 67 66 -48 1
w 67 -66 48 1
w 67 -66 -48 0
w 68 67 49 0.387463
w 68 67 -49 0.0163997
w 68 -67 49 0.552022
w 68 -67 -49 0.147516
w 69 68 50 0.604856
w 69 68 -50 0.244234
w 69 -68 50 0.653066
w 69 -68 -50 0.643854
w 70 69 51 0.860959
w 70 69 -51 0.0264855
w 70 -69 51 0.630922
w 70 -69 -51 0.0229187
w 71 70 52 0.937975
w 71 70 -52 0.948491
w 71 -70 52 0.504104
w 71 -70 -52 0.575187
w 72 71 53 1
w 72 71 -53 0
w 72 -71 53 1
w 72 -71 -53 1
w 73 72 54 1
w 73 72 -54 1
w 73 -72 54 0
w 73 -72 -54 0
w 74 73 55 0.113485
w 74 73 -55 0.0713977
w 74 -73 55 0.968585
w 74 -73 -55 0.665507
w 75 74 56 1
w 75 74 -56 0
w 75 -74 56 0
w 75 -74 -56 1
w 76 75 57 0.27009
w 76 75 -57 0.107636
w 76 -75 57 0.940703
w 76 -75 -57 0.901012
w 77 58 1
w 77 -58 0
w 78 77 59 0.0790459
w 78 77 -59 0.173709
w 78 -77 59 0.414173
w 78 -77 -59 0.251477
w 79 78 60 0.84876
w 79 78 -60 0.342153
w 79 -78 60 0.252868
w 79 -78 -60 0.286035
w 80 79 61 0.272213
w 80 79 -61 0.533974
w 80 -79 61 0.310822
w 80 -79 -61 0.224398
w 81 80 62 0.382219
w 81 80 -62 0.192982
w 81 -80 62 0.312966
w 81 -80 -62 0.601133
w 82 81 63 0.583329
w 82 81 -63 0.0642806
w 82 -81 63 0.0332702
w 82 -81 -63 0.497546
w 83 82 64 0
w 83 82 -64 1
w 83 -82 64 1
w 83 -82 -64 0
w 84 83 65 0
w 84 83 -65 1
w 84 -83 65 1
w 84 -83 -65 1
w 85 84 66 0.337302
w 85 84 -66 0.944138
w 85 -84 66 0.185966
w 85 -84 -66 0.623337
w 86 85 67 0.458179
w 86 85 -67 0.157311
w 86 -85 67 0.881846
w 86 -85 -67 0.682576
w 87 86 68 0.264065
w 87 86 -68 0.875559
w 87 -86 68 0.117736
w 87 -86 -68 0.865198
w 88 87 69 0.701065
w 88 87 -69 0.929478
w 88 -87 69 0.695422
w 88 -87 -69 0.198611
w 89 88 70 1
w 89 88 -70 0
w 89 -88 70 1
w 89 -88 -70 1
w 90 89 71 0.573599
w 90 89 -71 0.458297
w 90 -89 71 0.0262778
w 90 -89 -71 0.0621414
w 91 90 72 0
w 91 90 -72 1
w 91 -90 72 1
w 91 -90 -72 1
w 92 91 73 0
w 92 91 -73 0
w 92 -91 73 1
w 92 -91 -73 0
w 93 92 74 0
w 93 92 -74 0
w 93 -92 74 0
w 93 -92 -74 1
w 94 93 75 0.823808
w 94 93 -75 0.803662
w 94 -93 75 0.516029
w 94 -93 -75 0.519231
w 95 94 76 1
w 95 94 -76 0
w 95 -94 76 0
w 95 -94 -76 0
w 96 77 0
w 96 -77 1
w 97 96 78 0.921645
w 97 96 -78 0.410126
w 97 -96 78 0.914849
w 97 -96 -78 0.981927
w 98 97 79 0
w 98 97 -79 0
w 98 -97 79 1
w 98 -97 -79 0
w 99 98 80 0.118365
w 99 98 -80 0.517165
w 99 -98 80 0.0190765
w 99 -98 -80 0.404462
w 100 99 81 0.74043
w 100 99 -81 0.566119
w 100 -99 81 0.604623
w 100 -99 -81 0.326981
w 101 100 82 1
w 101 100 -82 1
w 101 -100 82 0
w 101 -100 -82 1
w 102 101 83 0.264717
w 102 101 -83 0.049694
w 102 -101 83 0.901996
w 102 -101 -83 0.728065
w 103 102 84 0
w 103 102 -84 0
w 103 -102 84 1
w 103 -102 -84 1
w 104 103 85 0.213171
w 104 103 -85 0.983845
w 104 -103 85 0.617983
w 104 -103 -85 0.728016
w 105 104 86 1
w 105 104 -86 1
w 105 -104 86 0
w 105 -104 -86 1
w 106 105 87 0
w 106 105 -87 0
w 106 -105 87 1
w 106 -105 -87 0
w 107 106 88 1
w 107 106 -88 1
w 107 -106 88 0
w 107 -106 -88 0
w 108 107 89 0.732156
w 108 107 -89 0.380763
w 108 -107 89 0.813271
w 108 -107 -89 0.634152
w 109 108 90 1
w 109 108 -90 1
w 109 -108 90 1
w 109 -108 -90 0
w 110 109 91 1
w 110 109 -91 0
w 110 -109 91 0
w 110 -109 -91 1
w 111 110 92 0
w 111 110 -92 0
w 111 -110 92 1
w 111 -110 -92 0
w 112 111 93 0
w 112 111 -93 0
w 112 -111 93 0
w 112 -111 -93 1
w 113 112 94 1
w 113 112 -94 1
w 113 -112 94 0
w 113 -112 -94 1
w 114 113 95 1
w 114 113 -95 1
w 114 -113 95 1
w 114 -113 -95 0
w 115 96 0
w 115 -96 1
w 116 115 97 0.456744
w 116 115 -97 0.516921
w 116 -115 97 0.753253
w 116 -115 -97 0.515151
w 117 116 98 0.0569069
w 117 116 -98 0.557404
w 117 -116 98 0.915257
w 117 -116 -98 0.0885763
w 118 117 99 0.103187
w 118 117 -99 0.966626
w 118 -117 99 0.121826
w 118 -117 -99 0.489964
w 119 118 100 1
w 119 118 -100 0
w 119 -118 100 1
w 119 -118 -100 0
w 120 119 101 0
w 120 119 -101 1
w 120 -119 101 0
w 120 -119 -101 1
w 121 120 102 0.543646
w 121 120 -102 0.112462
w 121 -120 102 0.00703098
w 121 -120 -102 0.611534
w 122 121 103 0.669802
w 122 121 -103 0.0682772
w 122 -121 103 0.387766
w 122 -121 -103 0.423055
w 123 122 104 0.294864
w 123 122 -104 0.479962
w 123 -122 104 0.140833
w 123 -122 -104 0.210121
w 124 123 105 0.0614065
w 124 123 -105 0.313309
w 124 -123 105 0.535164
w 124 -123 -105 0.183233
w 125 124 106 0.630684
w 125 124 -106 0.846419
w 125 -124 106 0.619291
w 125 -124 -106 0.672058
w 126 125 107 0.0276215
w 126 125 -107 0.866177
w 126 -125 107 0.984085
w 126 -125 -107 0.137531
w 127 126 108 0
w 127 126 -108 1
w 127 -126 108 0
w 127 -126 -108 0
w 128 127 109 1
w 128 127 -109 0
w 128 -127 109 1
w 128 -127 -109 0
w 129 128 110 0.944417
w 129 128 -110 0.995023
w 129 -128 110 0.155008
w 129 -128 -110 0.0852494
w 130 129 111 0
w 130 129 -111 1
w 130 -129 111 0
w 130 -129 -111 0
w 131 130 112 0
w 131 130 -112 1
w 131 -130 112 0
w 131 -130 -112 1
w 132 131 113 1
w 132 131 -113 0
w 132 -131 113 0
w 132 -131 -113 0
w 133 132 114 0.787348
w 133 132 -114 0.198264
w 133 -132 114 0.313441
w 133 -132 -114 0.0800583
w 134 115 0.565433
w 134 -115 0.441046
w 135 134 116 0
w 135 134 -116 1
w 135 -134 116 0
w 135 -134 -116 1
w 136 135 117 1
w 136 135 -117 0
w 136 -135 117 1
w 136 -135 -117 1
w 137 136 118 0.251161
w 137 136 -118 0.267139
w 137 -136 118 0.123565
w 137 -136 -118 0.192178
w 138 137 119 0.295571
w 138 137 -119 0.160817
w 138 -137 119 0.256221
w 138 -137 -119 0.451662
w 139 138 120 0
w 139 138 -120 1
w 139 -138 120 0
w 139 -138 -120 1
w 140 139 121 1
w 140 139 -121 1
w 140 -139 121 0
w 140 -139 -121 0
w 141 140 122 0.302266
w 141 140 -122 0.960903
w 141 -140 122 0.138508
w 141 -140 -122 0.697753
w 142 141 123 0
w 142 141 -123 0
w 142 -141 123 0
w 142 -141 -123 1
w 143 142 124 1
w 143 142 -124 0
w 143 -142 124 1
w 143 -142 -124 1
w 144 143 125 0.290261
w 144 143 -125 0.415377
w 144 -143 125 0.08308
w 144 -143 -125 0.546482
w 145 144 126 0.350067
w 145 144 -126 0.559419
w 145 -144 126 0.0499508
w 145 -144 -126 0.404402
w 146 145 127 0.546304
w 146 145 -127 0.538795
w 146 -145 127 0.492475
w 146 -145 -127 0.60809
w 147 146 128 0
w 147 146 -128 0
w 147 -146 128 0
w 147 -146 -128 1
w 148 147 129 0.506752
w 148 147 -129 0.113145
w 148 -147 129 0.424897
w 148 -147 -129 0.555736
w 149 148 130 0.619429
w 149 148 -130 0.551977
w 149 -148 130 0.322154
w 149 -148 -130 0.0810989
w 150 149 131 0.244417
w 150 149 -131 0.37136
w 150 -149 131 0.0871592
w 150 -149 -131 0.327497
w 151 150 132 0.954198
w 151 150 -132 0.677565
w 151 -150 132 0.477261
w 151 -150 -132 0.00414849
w 152 151 133 1
w 152 151 -133 0
w 152 -151 133 0
w 152 -151 -133 1
w 153 134 1
w 153 -134 0
w 154 153 135 1
w 154 153 -135 1
w 154 -153 135 1
w 154 -153 -135 0
w 155 154 136 0.101906
w 155 154 -136 0.87262
w 155 -154 136 0.434369
w 155 -154 -136 0.721335
w 156 155 137 1
w 156 155 -137 0
w 156 -155 137 0
w 156 -155 -137 0
w 157 156 138 1
w 157 156 -138 0
w 157 -156 138 0
w 157 -156 -138 1
w 158 157 139 0
w 158 157 -139 1
w 158 -157 139 0
w 158 -157 -139 1
w 159 158 140 0.70873
w 159 158 -140 0.557134
w 159 -158 140 0.850881
w 159 -158 -140 0.443726
w 160 159 141 0.91978
w 160 159 -141 0.253858
w 160 -159 141 0.451791
w 160 -159 -141 0.596789
w 161 160 142 0.294091
w 161 160 -142 0.698695
w 161 -160 142 0.443363
w 161 -160 -142 0.72846
w 162 161 143 1
w 162 161 -143 1
w 162 -161 143 1
w 162 -161 -143 0
w 163 162 144 0
w 163 162 -144 1
w 163 -162 144 1
w 163 -162 -144 0
w 164 163 145 0.0567925
w 164 163 -145 0.427499
w 164 -163 145 0.908336
w 164 -163 -145 0.873571
w 165 164 146 1
w 165 164 -146 0
w 165 -164 146 0
w 165 -164 -146 1
w 166 165 147 1
w 166 165 -147 0
w 166 -165 147 0
w 166 -165 -147 0
w 167 166 148 0.899221
w 167 166 -148 0.185981
w 167 -166 148 0.328755
w 167 -166 -148 0.627681
w 168 167 149 0.196715
w 168 167 -149 0.112665
w 168 -167 149 0.828475
w 168 -167 -149 0.161054
w 169 168 150 0.224732
w 169 168 -150 0.308932
w 169 -168 150 0.412953
w 169 -168 -150 0.712627
w 170 169 151 0.233319
w 170 169 -151 0.769419
w 170 -169 151 0.0220446
w 170 -169 -151 0.141655
w 171 170 152 0.141881
w 171 170 -152 0.758721
w 171 -170 152 0.0736947
w 171 -170 -152 0.112598
w 172 153 0.227034
w 172 -153 0.00309537
w 173 172 154 0
w 173 172 -154 0
w 173 -172 154 1
w 173 -172 -154 0
w 174 173 155 0.348311
w 174 173 -155 0.359066
w 174 -173 155 0.282374
w 174 -173 -155 0.545026
w 175 174 156 0
w 175 174 -156 1
w 175 -174 156 1
w 175 -174 -156 1
w 176 175 157 0
w 176 175 -157 0
w 176 -175 157 0
w 176 -175 -157 1
w 177 176 158 0.858247
w 177 176 -158 0.460617
w 177 -176 158 0.773482
w 177 -176 -158 0.616968
w 178 177 159 0.88608
w 178 177 -159 0.436481
w 178 -177 159 0.761346
w 178 -177 -159 0.889176
w 179 178 160 0.59351
w 179 178 -160 0.379557
w 179 -178 160 0.5902
w 179 -178 -160 0.324895
w 180 179 161 1
w 180 179 -161 0
w 180 -179 161 1
w 180 -179 -161 1
w 181 180 162 1
w 181 180 -162 0
w 181 -180 162 1
w 181 -180 -162 0
w 182 181 163 1
w 182 181 -163 1
w 182 -181 163 0
w 182 -181 -163 1
w 183 182 164 0
w 183 182 -164 1
w 183 -182 164 1
w 183 -182 -164 0
w 184 183 165 0.105346
w 184 183 -165 0.337575
w 184 -183 165 0.406831
w 184 -183 -165 0.994522
w 185 184 166 0.000340751
w 185 184 -166 0.374079
w 185 -184 166 0.498418
w 185 -184 -166 0.325236
w 186 185 167 1
w 186 185 -167 1
w 186 -185 167 0
w 186 -185 -167 1
w 187 186 168 0
w 187 186 -168 1
w 187 -186 168 1
w 187 -186 -168 0
w 188 187 169 1
w 188 187 -169 1
w 188 -187 169 1
w 188 -187 -169 0
w 189 188 170 1
w 189 188 -170 0
w 189 -188 170 1
w 189 -188 -170 1
w 190 189 171 0.242307
w 190 189 -171 0.899285
w 190 -189 171 0.0488624
w 190 -189 -171 0.649138
w 191 172 0.957081
w 191 -172 0.649479
w 192 191 173 1
w 192 191 -173 0
w 192 -191 173 0
w 192 -191 -173 1
w 193 192 174 0.466179
w 193 192 -174 0.812893
w 193 -192 174 0.148803
w 193 -192 -174 0.683615
w 194 193 175 0.539706
w 194 193 -175 0.685775
w 194 -193 175 0.237679
w 194 -193 -175 0.639896
w 195 194 176 0.366568
w 195 194 -176 0.165964
w 195 -194 176 0.00651296
w 195 -194 -176 0.941241
w 196 195 177 0.603335
w 196 195 -177 0.73518
w 196 -195 177 0.687445
w 196 -195 -177 0.845642
w 197 196 178 0.736308
w 197 196 -178 0.49478
w 197 -196 178 0.528272
w 197 -196 -178 0.693389
w 198 197 179 1
w 198 197 -179 0
w 198 -197 179 1
w 198 -197 -179 0
w 199 198 180 0
w 199 198 -180 1
w 199 -198 180 1
w 199 -198 -180 1
w 200 199 181 0.777183
w 200 199 -181 0.791395
w 200 -199 181 0.329614
w 200 -199 -181 0.0148619
w 201 200 182 0
w 201 200 -182 0
w 201 -200 182 1
w 201 -200 -182 1
w 202 201 183 0
w 202 201 -183 0
w 202 -201 183 1
w 202 -201 -183 0
w 203 202 184 0
w 203 202 -184 1
w 203 -202 184 1
w 203 -202 -184 0
w 204 203 185 0.945007
w 204 203 -185 0.016745
w 204 -203 185 0.839443
w 204 -203 -185 0.0639807
w 205 204 186 0.880759
w 205 204 -186 0.166867
w 205 -204 186 0.471013
w 205 -204 -186 0.734969
w 206 205 187 1
w 206 205 -187 0
w 206 -205 187 1
w 206 -205 -187 0
w 207 206 188 0.64124
w 207 206 -188 0.294944
w 207 -206 188 0.908444
w 207 -206 -188 0.238494
w 208 207 189 1
w 208 207 -189 0
w 208 -207 189 0
w 208 -207 -189 0
w 209 208 190 1
w 209 208 -190 0
w 209 -208 190 1
w 209 -208 -190 0
w 210 191 1
w 210 -191 0
w 211 210 192 0.218612
w 211 210 -192 0.599925
w 211 -210 192 0.727967
w 211 -210 -192 0.729401
w 212 211 193 0
w 212 211 -193 0
w 212 -211 193 0
w 212 -211 -193 1
w 213 212 194 0
w 213 212 -194 0
w 213 -212 194 1
w 213 -212 -194 1
w 214 213 195 0
w 214 213 -195 1
w 214 -213 195 0
w 214 -213 -195 0
w 215 214 196 0
w 215 214 -196 1
w 215 -214 196 1
w 215 -214 -196 1
w 216 215 197 0.664622
w 216 215 -197 0.357668
w 216 -215 197 0.45608
w 216 -215 -197 0.86649
w 217 216 198 1
w 217 216 -198 0
w 217 -216 198 0
w 217 -216 -198 1
w 218 217 199 0.198759
w 218 217 -199 0.742866
w 218 -217 199 0.0149173
w 218 -217 -199 0.414412
w 219 218 200 0
w 219 218 -200 0
w 219 -218 200 0
w 219 -218 -200 1
w 220 219 201 0
w 220 219 -201 0
w 220 -219 201 1
w 220 -219 -201 0
w 221 220 202 0.36222
w 221 220 -202 0.170068
w 221 -220 202 0.638016
w 221 -220 -202 0.64996
w 222 221 203 0.302638
w 222 221 -203 0.00762857
w 222 -221 203 0.36325
w 222 -221 -203 0.169128
w 223 222 204 0
w 223 222 -204 0
w 223 -222 204 1
w 223 -222 -204 1
w 224 223 205 0
w 224 223 -205 1
w 224 -223 205 0
w 224 -223 -205 0
w 225 224 206 0
w 225 224 -206 0
w 225 -224 206 0
w 225 -224 -206 1
w 226 225 207 0.454234
w 226 225 -207 0.648334
w 226 -225 207 0.556573
w 226 -225 -207 0.601477
w 227 226 208 0.511247
w 227 226 -208 0.963697
w 227 -226 208 0.169598
w 227 -226 -208 0.149263
w 228 227 209 0.0767674
w 228 227 -209 0.451901
w 228 -227 209 0.621286
w 228 -227 -209 0.440017
w 229 210 0.747065
w 229 -210 0.923333
w 230 229 211 0.590919
w 230 229 -211 0.254682
w 230 -229 211 0.943992
w 230 -229 -211 0.633531
w 231 230 212 0
w 231 230 -212 1
w 231 -230 212 1
w 231 -230 -212 0
w 232 231 213 0.169431
w 232 231 -213 0.945222
w 232 -231 213 0.686073
w 232 -231 -213 0.623665
w 233 232 214 0.242647
w 233 232 -214 0.225142
w 233 -232 214 0.593086
w 233 -232 -214 0.753893
w 234 233 215 0
w 234 233 -215 1
w 234 -233 215 1
w 234 -233 -215 0
w 235 234 216 1
w 235 234 -216 0
w 235 -234 216 1
w 235 -234 -216 1
w 236 235 217 0
w 236 235 -217 1
w 236 -235 217 0
w 236 -235 -217 0
w 237 236 218 0.822979
w 237 236 -218 0.485854
w 237 -236 218 0.245748
w 237 -236 -218 0.264455
w 238 237 219 1
w 238 237 -219 1
w 238 -237 219 1
w 238 -237 -219 0
w 239 238 220 0.104371
w 239 238 -220 0.263985
w 239 -238 220 0.396318
w 239 -238 -220 0.858264
w 240 239 221 0
w 240 239 -221 1
w 240 -239 221 0
w 240 -239 -221 0
w 241 240 222 0
w 241 240 -222 0
w 241 -240 222 0
w 241 -240 -222 1
w 242 241 223 0
w 242 241 -223 1
w 242 -241 223 0
w 242 -241 -223 0
w 243 242 224 1
w 243 242 -224 0
w 243 -242 224 1
w 243 -242 -224 0
w 244 243 225 0.668521
w 244 243 -225 0.385513
w 244 -243 225 0.0363553
w 244 -243 -225 0.530245
w 245 244 226 0
w 245 244 -226 0
w 245 -244 226 1
w 245 -244 -226 1
w 246 245 227 0
w 246 245 -227 1
w 246 -245 227 1
w 246 -245 -227 1
w 247 246 228 0
w 247 246 -228 1
w 247 -246 228 0
w 247 -246 -228 0
w 248 229 0.152007
w 248 -229 0.407249
w 249 248 230 0.0902129
w 249 248 -230 0.146494
w 249 -248 230 0.544275
w 249 -248 -230 0.8148
w 250 249 231 0.0371455
w 250 249 -231 0.785135
w 250 -249 231 0.535396
w 250 -249 -231 0.705667
w 251 250 232 1
w 251 250 -232 0
w 251 -250 232 1
w 251 -250 -232 1
w 252 251 233 0.283346
w 252 251 -233 0.647245
w 252 -251 233 0.363408
w 252 -251 -233 0.424511
w 253 252 234 1
w 253 252 -234 0
w 253 -252 234 0
w 253 -252 -234 1
w 254 253 235 0.106799
w 254 253 -235 0.451827
w 254 -253 235 0.822125
w 254 -253 -235 0.258806
w 255 254 236 0.359384
w 255 254 -236 0.349018
w 255 -254 236 0.00556994
w 255 -254 -236 0.903659
w 256 255 237 1
w 256 255 -237 0
w 256 -255 237 1
w 256 -255 -237 1
w 257 256 238 0.119601
w 257 256 -238 0.821435
w 257 -256 238 0.882383
w 257 -256 -238 0.714605
w 258 257 239 0
w 258 257 -239 1
w 258 -257 239 1
w 258 -257 -239 1
w 259 258 240 0.734026
w 259 258 -240 0.243457
w 259 -258 240 0.357689
w 259 -258 -240 0.722512
w 260 259 241 1
w 260 259 -241 0
w 260 -259 241 0
w 260 -259 -241 1
w 261 260 242 0
w 261 260 -242 1
w 261 -260 242 0
w 261 -260 -242 0
w 262 261 243 1
w 262 261 -243 0
w 262 -261 243 0
w 262 -261 -243 0
w 263 262 244 0.304683
w 263 262 -244 0.824392
w 263 -262 244 0.694867
w 263 -262 -244 0.0192883
w 264 263 245 1
w 264 263 -245 0
w 264 -263 245 0
w 264 -263 -245 0
w 265 264 246 1
w 265 264 -246 1
w 265 -264 246 0
w 265 -264 -246 1
w 266 265 247 0.681536
w 266 265 -247 0.194974
w 266 -265 247 0.785365
w 266 -265 -247 0.404829
w 267 248 0
w 267 -248 1
w 268 267 249 1
w 268 267 -249 0
w 268 -267 249 0
w 268 -267 -249 0
w 269 268 250 0
w 269 268 -250 1
w 269 -268 250 0
w 269 -268 -250 0
w 270 269 251 0.00548744
w 270 269 -251 0.222324
w 270 -269 251 0.90516
w 270 -269 -251 0.453265
w 271 270 252 1
w 271 270 -252 1
w 271 -270 252 1
w 271 -270 -252 0
w 272 271 253 0
w 272 271 -253 1
w 272 -271 253 1
w 272 -271 -253 1
w 273 272 254 0.531093
w 273 272 -254 0.970984
w 273 -272 254 0.0051184
w 273 -272 -254 0.759481
w 274 273 255 1
w 274 273 -255 1
w 274 -273 255 1
w 274 -273 -255 0
w 275 274 256 1
w 275 274 -256 0
w 275 -274 256 1
w 275 -274 -256 0
w 276 275 257 1
w 276 275 -257 0
w 276 -275 257 0
w 276 -275 -257 0
w 277 276 258 0.758806
w 277 276 -258 0.666604
w 277 -276 258 0.694894
w 277 -276 -258 0.43807
w 278 277 259 1
w 278 277 -259 0
w 278 -277 259 1
w 278 -277 -259 0
w 279 278 260 0.887352
w 279 278 -260 0.877589
w 279 -278 260 0.957094
w 279 -278 -260 0.892471
w 280 279 261 0.0349934
w 280 279 -261 0.37473
w 280 -279 261 0.663925
w 280 -279 -261 0.445016
w 281 280 262 0.711426
w 281 280 -262 0.353175
w 281 -280 262 0.664142
w 281 -280 -262 0.782529
w 282 281 263 0.96106
w 282 281 -263 0.701627
w 282 -281 263 0.796222
w 282 -281 -263 0.480303
w 283 282 264 0.473755
w 283 282 -264 0.23911
w 283 -282 264 0.192488
w 283 -282 -264 0.168648
w 284 283 265 0.560798
w 284 283 -265 0.179026
w 284 -283 265 0.47767
w 284 -283 -265 0.84786
w 285 284 266 0.46378
w 285 284 -266 0.735213
w 285 -284 266 0.403111
w 285 -284 -266 0.420875
w 286 267 0.0401805
w 286 -267 0.455868
w 287 286 268 1
w 287 286 -268 0
w 287 -286 268 0
w 287 -286 -268 1
w 288 287 269 1
w 288 287 -269 0
w 288 -287 269 0
w 288 -287 -269 1
w 289 288 270 0.622237
w 289 288 -270 0.678177
w 289 -288 270 0.425572
w 289 -288 -270 0.0959912
w 290 289 271 0.61806
w 290 289 -271 0.264639
w 290 -289 271 0.594467
w 290 -289 -271 0.178858
w 291 290 272 0
w 291 290 -272 1
w 291 -290 272 0
w 291 -290 -272 0
w 292 291 273 0.372297
w 292 291 -273 0.956792
w 292 -291 273 0.389614
w 292 -291 -273 0.412478
w 293 292 274 1
w 293 292 -274 0
w 293 -292 274 1
w 293 -292 -274 1
w 294 293 275 0.567604
w 294 293 -275 0.201512
w 294 -293 275 0.730175
w 294 -293 -275 0.393618
w 295 294 276 1
w 295 294 -276 0
w 295 -294 276 0
w 295 -294 -276 1
w 296 295 277 1
w 296 295 -277 0
w 296 -295 277 1
w 296 -295 -277 1
w 297 296 278 0.82015
w 297 296 -278 0.661454
w 297 -296 278 0.87907
w 297 -296 -278 0.789337
w 298 297 279 0
w 298 297 -279 1
w 298 -297 279 1
w 298 -297 -279 1
w 299 298 280 0.566824
w 299 298 -280 0.422641
w 299 -298 280 0.690695
w 299 -298 -280 0.880369
w 300 299 281 0
w 300 299 -281 0
w 300 -299 281 1
w 300 -299 -281 0
w 301 300 282 0.988239
w 301 300 -282 0.582846
w 301 -300 282 0.857446
w 301 -300 -282 0.0658024
w 302 301 283 0.969292
w 302 301 -283 0.0606529
w 302 -301 283 0.311773
w 302 -301 -283 0.345777
w 303 302 284 0.164125
w 303 302 -284 0.165928
w 303 -302 284 0.311424
w 303 -302 -284 0.0431947
w 304 303 285 0.508796
w 304 303 -285 0.684195
w 304 -303 285 0.116899
w 304 -303 -285 0.662961
w 305 286 0.69101
w 305 -286 0.229785
w 306 305 287 1
w 306 305 -287 1
w 306 -305 287 1
w 306 -305 -287 0
w 307 306 288 0.113644
w 307 306 -288 0.557498
w 307 -306 288 0.399717
w 307 -306 -288 0.101883
w 308 307 289 1
w 308 307 -289 1
w 308 -307 289 0
w 308 -307 -289 0
w 309 308 290 0
w 309 308 -290 0
w 309 -308 290 1
w 309 -308 -290 1
w 310 309 291 0.189733
w 310 309 -291 0.297716
w 310 -309 291 0.693424
w 310 -309 -291 0.698529
w 311 310 292 0.810322
w 311 310 -292 0.36149
w 311 -310 292 0.696721
w 311 -310 -292 0.501333
w 312 311 293 0.834173
w 312 311 -293 0.883038
w 312 -311 293 0.701428
w 312 -311 -293 0.358964
w 313 312 294 0
w 313 312 -294 1
w 313 -312 294 1
w 313 -312 -294 0
w 314 313 295 0.185394
w 314 313 -295 0.916434
w 314 -313 295 0.742177
w 314 -313 -295 0.964017
w 315 314 296 1
w 315 314 -296 1
w 315 -314 296 1
w 315 -314 -296 0
w 316 315 297 0
w 316 315 -297 1
w 316 -315 297 1
w 316 -315 -297 1
w 317 316 298 0.957026
w 317 316 -298 0.0985762
w 317 -316 298 0.285284
w 317 -316 -298 0.458359
w 318 317 299 0.119457
w 318 317 -299 0.341396
w 318 -317 299 0.391279
w 318 -317 -299 0.478421
w 319 318 300 0.650834
w 319 318 -300 0.95103
w 319 -318 300 0.873999
w 319 -318 -300 0.310105
w 320 319 301 0.0593925
w 320 319 -301 0.226539
w 320 -319 301 0.267699
w 320 -319 -301 0.0234096
w 321 320 302 0
w 321 320 -302 1
w 321 -320 302 0
w 321 -320 -302 1
w 322 321 303 1
w 322 321 -303 1
w 322 -321 303 1
w 322 -321 -303 0
w 323 322 304 0.581973
w 323 322 -304 0.641557
w 323 -322 304 0.961258
w 323 -322 -304 0.867257
w 324 305 0
w 324 -305 1
w 325 324 306 0.441312
w 325 324 -306 0.0423885
w 325 -324 306 0.465135
w 325 -324 -306 0.27026
w 326 325 307 0.416165
w 326 325 -307 0.144259
w 326 -325 307 0.00332774
w 326 -325 -307 0.941686
w 327 326 308 1
w 327 326 -308 1
w 327 -326 308 1
w 327 -326 -308 0
w 328 327 309 0
w 328 327 -309 1
w 328 -327 309 0
w 328 -327 -309 0
w 329 328 310 0.685053
w 329 328 -310 0.906201
w 329 -328 310 0.522915
w 329 -328 -310 0.267025
w 330 329 311 0.484174
w 330 329 -311 0.134282
w 330 -329 311 0.647673
w 330 -329 -311 0.135283
w 331 330 312 0
w 331 330 -312 0
w 331 -330 312 1
w 331 -330 -312 1
w 332 331 313 0.0022952
w 332 331 -313 0.503503
w 332 -331 313 0.874221
w 332 -331 -313 0.943981
w 333 332 314 0.104088
w 333 332 -314 0.153366
w 333 -332 314 0.934215
w 333 -332 -314 0.703383
w 334 333 315 0.239099
w 334 333 -315 0.387226
w 334 -333 315 0.135604
w 334 -333 -315 0.930742
w 335 334 316 0.795837
w 335 334 -316 0.615795
w 335 -334 316 0.515097
w 335 -334 -316 0.318753
w 336 335 317 0.0628543
w 336 335 -317 0.802926
w 336 -335 317 0.017102
w 336 -335 -317 0.710527
w 337 336 318 0.138098
w 337 336 -318 0.799511
w 337 -336 318 0.11588
w 337 -336 -318 0.724228
w 338 337 319 0
w 338 337 -319 0
w 338 -337 319 1
w 338 -337 -319 0
w 339 338 320 0.369414
w 339 338 -320 0.965084
w 339 -338 320 0.823871
w 339 -338 -320 0.303629
w 340 339 321 0.424837
w 340 339 -321 0.542728
w 340 -339 321 0.0556928
w 340 -339 -321 0.560441
w 341 340 322 1
w 341 340 -322 0
w 341 -340 322 0
w 341 -340 -322 1
w 342 341 323 0.972085
w 342 341 -323 0.24254
w 342 -341 323 0.477956
w 342 -341 -323 0.989187
w 343 324 0.416165
w 343 -324 0.127285
w 344 343 325 0.532046
w 344 343 -325 0.851513
w 344 -343 325 0.911334
w 344 -343 -325 0.51882
w 345 344 326 0.573593
w 345 344 -326 0.379815
w 345 -344 326 0.248541
w 345 -344 -326 0.943007
w 346 345 327 0
w 346 345 -327 1
w 346 -345 327 0
w 346 -345 -327 1
w 347 346 328 0.0690584
w 347 346 -328 0.0576898
w 347 -346 328 0.262834
w 347 -346 -328 0.733647
w 348 347 329 1
w 348 347 -329 1
w 348 -347 329 0
w 348 -347 -329 1
w 349 348 330 1
w 349 348 -330 1
w 349 -348 330 1
w 349 -348 -330 0
w 350 349 331 1
w 350 349 -331 0
w 350 -349 331 0
w 350 -349 -331 1
w 351 350 332 0
w 351 350 -332 0
w 351 -350 332 0
w 351 -350 -332 1
w 352 351 333 0
w 352 351 -333 1
w 352 -351 333 1
w 352 -351 -333 0
w 353 352 334 0.325451
w 353 352 -334 0.841122
w 353 -352 334 0.746099
w 353 -352 -334 0.588285
w 354 353 335 0.160066
w 354 353 -335 0.940384
w 354 -353 335 0.488102
w 354 -353 -335 0.249064
w 355 354 336 0
w 355 354 -336 1
w 355 -354 336 0
w 355 -354 -336 0
w 356 355 337 0.0185961
w 356 355 -337 0.614431
w 356 -355 337 0.314303
w 356 -355 -337 0.310765
w 357 356 338 1
w 357 356 -338 0
w 357 -356 338 0
w 357 -356 -338 1
w 358 357 339 1
w 358 357 -339 1
w 358 -357 339 1
w 358 -357 -339 0
w 359 358 340 0
w 359 358 -340 1
w 359 -358 340 0
w 359 -358 -340 1
w 360 359 341 0
w 360 359 -341 0
w 360 -359 341 0
w 360 -359 -341 1
w 361 360 342 1
w 361 360 -342 0
w 361 -360 342 1
w 361 -360 -342 1